param set_len = 26;
param target_sum = 5320254141;
param values := [1] 492107441 [2] 583103119 [3] 996285767 [4] 530163725 [5] 946498708 [6] 258281440 [7] 739801460 [8] 415018144 [9] 291570161 [10] 245030676 [11] 132981001 [12] 590455099 [13] 1070031581 [14] 691235481 [15] 278976561 [16] 373599697 [17] 262987423 [18] 262834232 [19] 507450008 [20] 768124164 [21] 107988322 [22] 978012604 [23] 294150340 [24] 981753317 [25] 599004627 [26] 17104172 ;
